c   #vars: 85   #clauses: 377   #literals: 1050
c 
p cnf 85 377
-1 -2 0
-3 -4 0
-5 -6 0
7 8 70 71 0
-7 -8 0
-9 -10 0
-11 -12 0
-13 -14 0
-15 -16 0
-17 -18 0
-19 -20 0
-21 -22 0
26 29 30 -62 0
-24 -25 0
-13 17 18 33 0
-27 -28 0
-29 -30 0
-31 -32 0
27 28 34 -61 0
21 22 39 -69 0
-35 -36 0
-37 -38 0
-23 42 76 77 0
-40 -41 0
1 2 -34 61 0
-43 -44 0
-45 -46 0
-47 -48 0
-49 -50 0
-51 -52 0
-53 -54 0
-55 -56 0
-57 -58 0
11 12 62 63 0
-59 -60 0
-13 45 46 66 0
-62 -63 0
-64 -65 0
19 20 -23 67 0
5 6 -55 68 0
-44 51 52 69 0
39 -44 -59 69 0
-70 -71 0
-72 -73 0
-74 -75 0
-76 -77 0
-78 -79 0
3 4 80 81 0
-80 -81 0
57 58 82 83 0
-82 -83 0
1 2 53 54 0
-84 -85 0
5 6 78 79 0
-1 -43 0
-2 -44 0
27 28 43 44 0
-1 -49 0
-2 -50 0
-2 -27 34 61 0
-1 -53 0
-2 -54 0
5 6 70 71 0
-1 -57 0
-2 -58 0
5 6 35 36 0
-1 -59 0
-2 -60 0
15 16 57 58 0
-1 -61 0
-5 45 46 66 0
9 10 80 81 0
-3 -29 0
-4 -30 0
21 22 35 36 0
-3 -31 0
-4 -32 0
-3 -43 0
-4 -44 0
31 32 84 85 0
-3 -49 0
-4 -50 0
3 4 49 50 0
-3 -80 0
-4 -81 0
7 8 37 38 0
-11 27 28 34 0
-6 -33 0
24 25 45 46 0
-5 -35 0
-6 -36 0
26 -40 62 63 0
-18 19 20 67 0
-6 -66 0
-10 23 42 -67 0
-39 51 52 69 0
-6 -68 0
7 8 59 60 0
-5 -70 0
-6 -71 0
-5 -78 0
-6 -79 0
-10 23 42 -55 0
47 48 62 63 0
-2 -11 34 61 0
-21 39 -52 69 0
-10 -11 34 61 0
-7 -37 0
-8 -38 0
11 12 49 50 0
-7 -45 0
-8 -46 0
17 18 64 65 0
-7 -47 0
-8 -48 0
19 20 47 48 0
-7 -55 0
-8 -56 0
19 20 74 75 0
-7 -59 0
-8 -60 0
-21 39 -44 69 0
-7 -70 0
-8 -71 0
23 42 -67 -77 0
-9 -42 0
1 2 -10 61 0
23 -42 55 56 0
-9 -51 0
-10 -52 0
21 22 59 60 0
-9 -61 0
13 14 -45 66 0
3 4 31 32 0
-9 -80 0
-10 -81 0
1 2 59 60 0
-9 -82 0
-10 -83 0
22 39 -59 0
-12 -34 0
47 48 76 77 0
-11 -45 0
-12 -46 0
24 25 76 77 0
-11 -49 0
-12 -50 0
13 14 76 77 0
-11 -53 0
-12 -54 0
51 52 72 73 0
-11 -62 0
-12 -63 0
9 10 82 83 0
-11 -70 0
-12 -71 0
11 12 76 77 0
-11 -76 0
-12 -77 0
1 2 49 50 0
-11 -84 0
-12 -85 0
-10 -27 34 61 0
5 6 -13 66 0
-14 -33 0
5 6 -17 33 0
17 18 -23 67 0
-14 -66 0
55 56 80 81 0
43 44 -52 69 0
-14 -68 0
23 42 -55 -77 0
-13 -76 0
-14 -77 0
-15 -29 0
-16 -30 0
11 12 34 -61 0
-15 -37 0
-16 -38 0
49 50 59 60 0
-15 -43 0
-16 -44 0
57 58 74 75 0
-15 -57 0
-16 -58 0
-13 55 56 68 0
-15 -64 0
-16 -65 0
-20 23 -55 67 0
57 58 76 77 0
5 6 -45 66 0
-18 -33 0
15 16 37 38 0
-17 -64 0
-18 -65 0
40 41 62 63 0
-17 -67 0
5 6 -13 68 0
37 38 74 75 0
-17 -82 0
-18 -83 0
37 38 70 71 0
-17 -84 0
-18 -85 0
15 16 64 65 0
-19 -47 0
-20 -48 0
29 30 78 79 0
-19 -51 0
-20 -52 0
15 16 29 30 0
-19 -57 0
-20 -58 0
39 -52 -59 69 0
-19 -67 0
13 14 -55 68 0
3 4 29 30 0
-19 -72 0
-20 -73 0
53 54 80 81 0
-19 -74 0
-20 -75 0
-21 -35 0
-22 -36 0
-10 42 76 77 0
-22 -39 0
51 52 82 83 0
-21 -47 0
-22 -48 0
11 12 53 54 0
-21 -59 0
-22 -60 0
19 20 72 73 0
26 29 30 -40 0
9 10 -34 61 0
24 25 72 73 0
26 40 41 -62 0
-23 -56 0
3 4 43 44 0
26 -29 40 41 0
-5 13 14 68 0
39 59 60 -69 0
-24 -45 0
-25 -46 0
17 18 84 85 0
-24 -59 0
-25 -60 0
17 18 82 83 0
-24 -72 0
-25 -73 0
51 52 74 75 0
-24 -76 0
-25 -77 0
-5 55 56 68 0
-5 17 18 33 0
-26 -30 0
11 12 70 71 0
13 14 -17 33 0
-26 -41 0
7 8 47 48 0
-5 13 14 33 0
-26 -63 0
11 12 84 85 0
-28 -34 0
11 12 45 46 0
-27 -43 0
-28 -44 0
19 20 57 58 0
-27 -72 0
-28 -73 0
53 54 78 79 0
-27 -78 0
-28 -79 0
1 2 43 44 0
-29 -59 0
-30 -60 0
15 16 43 44 0
-29 -72 0
-30 -73 0
40 41 84 85 0
-29 -78 0
-30 -79 0
1 2 57 58 0
-31 -64 0
-32 -65 0
27 28 78 79 0
-31 -82 0
-32 -83 0
7 8 45 46 0
-31 -84 0
-32 -85 0
-18 23 -42 67 0
-5 13 14 66 0
-20 23 -42 67 0
-35 -64 0
-36 -65 0
43 44 76 77 0
-35 -82 0
-36 -83 0
31 32 82 83 0
-37 -70 0
-38 -71 0
5 6 -13 33 0
-37 -74 0
-38 -75 0
9 10 42 -77 0
-39 -60 0
9 10 -23 42 0
21 22 47 48 0
-40 -62 0
-41 -63 0
23 55 56 -67 0
-40 -72 0
-41 -73 0
27 28 72 73 0
-40 -78 0
-41 -79 0
-40 -84 0
-41 -85 0
40 41 72 73 0
-42 -76 0
-2 9 10 61 0
-18 23 -55 67 0
-43 -69 0
19 20 51 52 0
-43 -76 0
-44 -77 0
24 25 59 60 0
17 18 -20 67 0
-46 -66 0
35 36 64 65 0
-47 -62 0
-48 -63 0
31 32 64 65 0
-47 -76 0
-48 -77 0
11 12 -27 34 0
-49 -59 0
-50 -60 0
-51 -69 0
7 8 55 56 0
-51 -72 0
-52 -73 0
-51 -74 0
-52 -75 0
55 56 64 65 0
-51 -82 0
-52 -83 0
35 36 82 83 0
-53 -78 0
-54 -79 0
-21 39 60 0
-53 -80 0
-54 -81 0
55 56 62 63 0
-55 -62 0
-56 -63 0
40 41 78 79 0
-55 -64 0
-56 -65 0
9 10 51 52 0
-39 43 44 69 0
-56 -68 0
-55 -80 0
-56 -81 0
29 30 72 73 0
-57 -62 0
-58 -63 0
26 -29 62 63 0
-57 -74 0
-58 -75 0
29 30 59 60 0
-57 -76 0
-58 -77 0
57 58 62 63 0
-57 -82 0
-58 -83 0
